48174.39,57.39,69.59
53445.55,51.73,62.73
47085.29,58.71,71.2
52467.99,52.69,63.9
48411.96,57.11,69.25
45427.28,60.86,73.8
52788.53,52.37,63.51
54127.47,51.08,61.94
44268.81,62.45,75.73
42730.55,64.7,78.46
42948.39,64.37,78.06
56489.0,48.94,59.35
40709.38,67.91,82.35
45247.91,61.1,74.09
37989.4,72.77,88.25
49299.4,56.08,68.01
53049.64,52.11,63.2
47763.33,57.88,70.19
44633.98,61.94,75.11
38742.48,71.36,86.53
